c preprocessed version of water, 21 vertices, 94 edges
p td 21 94
0 1
0 2
0 7
8 0
2 1
3 1
1 7
6 1
10 1
14 1
13 1
3 2
2 7
6 2
10 2
14 2
11 2
4 3
9 3
10 3
12 3
14 3
5 4
9 4
10 4
12 4
5 6
9 5
10 5
12 5
11 5
13 5
6 7
10 6
14 6
11 6
13 6
8 7
10 7
11 7
13 7
8 9
8 10
9 10
12 11
14 11
11 13
12 13
12 14
14 13
15 18
15 16
15 17
15 3
15 19
15 9
15 8
15 10
16 18
16 0
16 1
16 2
16 17
16 19
17 18
17 0
17 2
17 7
17 19
17 8
18 0
18 1
18 7
18 19
18 8
19 20
19 2
19 3
19 1
19 7
19 14
19 11
19 13
20 15
20 16
20 17
20 18
20 2
20 3
20 1
20 12
20 14
20 11
20 13
